instances/shortest_path/discrete/shortest_path_4_20.lp
\ Model nohadani_4_20
\ LP format - for model browsing. Use MPS format to capture full model detail.
\ Signature: 0x26b3cf7f3313a25f
Minimize
  65.52098900352466 y[0,1] + 66.2872536767062 y[0,2]
   + 73.68174807915459 y[0,3] + 65.52098900352466 y[1,0]
   + 89.35882720806042 y[1,2] + 41.59326868617084 y[1,3]
   + 66.2872536767062 y[2,0] + 89.35882720806042 y[2,1]
   + 73.68174807915459 y[3,0] + 41.59326868617084 y[3,1] + x[0,1] + x[0,2]
   + x[0,3] + x[1,0] + x[1,2] + x[1,3] + x[2,0] + x[2,1] + x[3,0] + x[3,1]
   + 6.552098900352466 r[0,1] + 6.62872536767062 r[0,2]
   + 7.368174807915459 r[0,3] + 6.552098900352466 r[1,0]
   + 8.935882720806042 r[1,2] + 4.159326868617085 r[1,3]
   + 6.62872536767062 r[2,0] + 8.935882720806042 r[2,1]
   + 7.368174807915459 r[3,0] + 4.159326868617085 r[3,1]
Subject To
 flow_cons_inner_nodes[0]: - y[0,1] - y[0,2] - y[0,3] + y[1,0] + y[2,0]
   + y[3,0] = 0
 flow_cons_inner_nodes[1]: y[0,1] - y[1,0] - y[1,2] - y[1,3] + y[2,1]
   + y[3,1] = 0
 flow_cons_source: - y[0,2] - y[1,2] + y[2,0] + y[2,1] = 1
 flow_cons_target: y[0,3] + y[1,3] - y[3,0] - y[3,1] = 1
 primal_lower: 9.237948360322301 x[0,1] + 5.518024665685257 x[0,2]
   + 0.3495218429909749 x[0,3] + 8.724870485742676 x[1,0]
   + 2.290047977493919 x[1,2] + 4.679031361894161 x[1,3]
   + 6.02109801098641 x[2,0] + 5.790067312788177 x[2,1]
   + 7.776017770442693 x[3,0] + 7.669847067698229 x[3,1] + 93 u[0,1]
   + 26 u[0,2] + 92 u[0,3] + 73 u[1,0] + 2 u[1,2] + 3 u[1,3] + 63 u[2,0]
   + 33 u[2,1] + 43 u[3,0] + 92 u[3,1] <= 93
 mccormick1[0,1]: - u[0,1] + r[0,1] <= 0
 mccormick1[0,2]: - u[0,2] + r[0,2] <= 0
 mccormick1[0,3]: - u[0,3] + r[0,3] <= 0
 mccormick1[1,0]: - u[1,0] + r[1,0] <= 0
 mccormick1[1,2]: - u[1,2] + r[1,2] <= 0
 mccormick1[1,3]: - u[1,3] + r[1,3] <= 0
 mccormick1[2,0]: - u[2,0] + r[2,0] <= 0
 mccormick1[2,1]: - u[2,1] + r[2,1] <= 0
 mccormick1[3,0]: - u[3,0] + r[3,0] <= 0
 mccormick1[3,1]: - u[3,1] + r[3,1] <= 0
 mccormick2[0,1]: - y[0,1] + r[0,1] <= 0
 mccormick2[0,2]: - y[0,2] + r[0,2] <= 0
 mccormick2[0,3]: - y[0,3] + r[0,3] <= 0
 mccormick2[1,0]: - y[1,0] + r[1,0] <= 0
 mccormick2[1,2]: - y[1,2] + r[1,2] <= 0
 mccormick2[1,3]: - y[1,3] + r[1,3] <= 0
 mccormick2[2,0]: - y[2,0] + r[2,0] <= 0
 mccormick2[2,1]: - y[2,1] + r[2,1] <= 0
 mccormick2[3,0]: - y[3,0] + r[3,0] <= 0
 mccormick2[3,1]: - y[3,1] + r[3,1] <= 0
 mccormick3[0,1]: - y[0,1] - u[0,1] + r[0,1] >= -1
 mccormick3[0,2]: - y[0,2] - u[0,2] + r[0,2] >= -1
 mccormick3[0,3]: - y[0,3] - u[0,3] + r[0,3] >= -1
 mccormick3[1,0]: - y[1,0] - u[1,0] + r[1,0] >= -1
 mccormick3[1,2]: - y[1,2] - u[1,2] + r[1,2] >= -1
 mccormick3[1,3]: - y[1,3] - u[1,3] + r[1,3] >= -1
 mccormick3[2,0]: - y[2,0] - u[2,0] + r[2,0] >= -1
 mccormick3[2,1]: - y[2,1] - u[2,1] + r[2,1] >= -1
 mccormick3[3,0]: - y[3,0] - u[3,0] + r[3,0] >= -1
 mccormick3[3,1]: - y[3,1] - u[3,1] + r[3,1] >= -1
Bounds
Binaries
 y[0,1] y[0,2] y[0,3] y[1,0] y[1,2] y[1,3] y[2,0] y[2,1] y[3,0] y[3,1]
 x[0,1] x[0,2] x[0,3] x[1,0] x[1,2] x[1,3] x[2,0] x[2,1] x[3,0] x[3,1]
 u[0,1] u[0,2] u[0,3] u[1,0] u[1,2] u[1,3] u[2,0] u[2,1] u[3,0] u[3,1]
 r[0,1] r[0,2] r[0,3] r[1,0] r[1,2] r[1,3] r[2,0] r[2,1] r[3,0] r[3,1]
End
