instances/shortest_path/discrete/shortest_path_4_20.kp
33353
93

[9.237948360322301 5.518024665685257 0.34952184299097494 8.724870485742676 2.2900479774939186 4.679031361894161 6.02109801098641 5.790067312788177 7.776017770442693 7.669847067698229]

[93 26 92 73 2 3 63 33 43 92]
